31 6 
93 24 
9 22 
10 77 
10 95 
97 31 
34 70 
63 15 
60 12 
58 53 
66 95 
26 80 
92 11 
8 17 
98 89 
9 81 
48 2 
5 57 
76 15 
86 39 
10 35 
70 96 
6 34 
64 18 
98 22 
24 64 
69 50 
96 62 
13 56 
31 63 
46 41 
44 46 
95 50 
3 72 
17 42 
11 28 
77 81 
24 35 
67 40 
54 66 
62 30 
82 32 
32 79 
46 46 
35 77 
61 33 
18 58 
79 14 
60 35 
38 77 
